0 2
0 3
0 7
0 9
0 10
0 11
0 13
1 3
1 4
1 7
1 9
1 12
1 14
2 3
2 4
2 5
2 7
2 10
2 11
2 12
2 13
3 5
3 6
3 8
3 10
3 12
3 14
4 5
4 7
4 8
4 12
4 13
5 6
5 8
5 12
6 13
7 8
7 10
7 12
7 14
8 11
8 13
8 15
9 10
10 11
10 15
11 14
11 15
12 13
